20
1 0 2
2 0 7
2 1 16
3 0 15
3 1 8
3 2 3
4 1 16
4 2 17
4 3 18
5 1 5
5 3 14
5 4 10
6 0 4
6 1 15
6 2 19
6 3 19
6 5 5
7 1 20
7 2 14
7 3 19
7 4 3
7 5 8
7 6 5
8 0 7
8 2 1
8 3 10
8 5 13
9 0 13
9 1 2
9 2 3
9 3 5
9 5 13
9 6 12
9 8 1
10 0 7
10 1 12
10 3 5
10 4 3
10 5 1
10 6 17
10 7 20
11 1 17
11 2 14
11 4 17
11 7 9
11 9 20
12 1 20
12 2 10
12 3 9
12 4 3
12 5 18
12 6 20
12 7 15
12 8 8
12 10 1
12 11 19
13 0 4
13 1 8
13 2 9
13 3 12
13 4 5
13 6 5
13 9 17
13 10 16
13 12 15
14 1 16
14 2 15
14 3 5
14 5 17
14 6 4
14 7 3
14 9 20
14 10 9
14 11 20
14 12 1
15 0 9
15 1 17
15 2 3
15 3 17
15 5 10
15 6 5
15 10 16
15 13 8
16 0 16
16 1 10
16 3 7
16 4 7
16 5 6
16 8 11
16 10 8
16 12 17
16 13 8
17 0 11
17 1 2
17 2 3
17 5 6
17 7 9
17 8 17
17 9 20
17 10 12
17 12 12
17 14 2
17 15 2
18 1 16
18 2 3
18 3 2
18 5 8
18 6 13
18 8 5
18 9 8
18 10 3
18 12 1
18 15 7
19 0 20
19 4 4
19 5 11
19 6 3
19 9 4
19 10 19
19 11 20
19 12 6
19 14 2
19 16 8
19 17 12
19 18 16
